Maximize
 obj: 0 X1
Subject To
 c1:
  + 1 X46 + 1 X11 + 1 X3 + 1 X97 + 1 X89 + 1 X17 + 1 X21 + 1 X30
  + 1 X100 + 1 X98 + 1 X92
  <= 1
 c2:
  + 1 X66 + 1 X50 + 1 X28 + 1 X21 + 1 X60 + 1 X6 + 1 X79 + 1 X15
  + 1 X45 + 1 X58 + 1 X49 + 1 X74 + 1 X71 + 1 X9 + 1 X81
  <= 1
 c3:
  + 1 X25 + 1 X43 + 1 X55 + 1 X72 + 1 X83 + 1 X60 + 1 X18 + 1 X84
  + 1 X26 + 1 X37 + 1 X85 + 1 X75 + 1 X23 + 1 X74 + 1 X42 + 1 X79
  + 1 X7 + 1 X73 + 1 X22
  <= 1
 c4:
  + 1 X89 + 1 X20 + 1 X31 + 1 X90 + 1 X40 + 1 X19 + 1 X18 + 1 X83
  <= 1
 c5:
  + 1 X72 + 1 X8 + 1 X96 + 1 X66 + 1 X68 + 1 X19 + 1 X35 + 1 X33
  + 1 X2 + 1 X94 + 1 X5 + 1 X47 + 1 X74 + 1 X26 + 1 X30 + 1 X60
  <= 1
 c6:
  + 1 X71 + 1 X65 + 1 X32 + 1 X94 + 1 X63 + 1 X46 + 1 X62 + 1 X8
  + 1 X61 + 1 X24 + 1 X90 + 1 X76 + 1 X77 + 1 X13 + 1 X89 + 1 X22
  + 1 X45 + 1 X2 + 1 X14
  <= 1
 c7:
  + 1 X89 + 1 X61 + 1 X4
  <= 1
 c8:
  + 1 X99 + 1 X73 + 1 X83 + 1 X85 + 1 X95 + 1 X61 + 1 X42 + 1 X77
  + 1 X22 + 1 X44
  <= 1
 c9:
  + 1 X25 + 1 X21 + 1 X38 + 1 X83 + 1 X43 + 1 X72 + 1 X11 + 1 X70
  + 1 X92 + 1 X42 + 1 X87 + 1 X59 + 1 X26 + 1 X18 + 1 X5 + 1 X13
  + 1 X48 + 1 X9
  <= 1
 c10:
  + 1 X97 + 1 X6 + 1 X82 + 1 X93 + 1 X1 + 1 X10 + 1 X23 + 1 X45
  + 1 X52 + 1 X58 + 1 X47 + 1 X72 + 1 X68 + 1 X78 + 1 X57 + 1 X59
  + 1 X13
  <= 1
 c11:
  + 1 X11 + 1 X69 + 1 X10 + 1 X22 + 1 X67 + 1 X24 + 1 X81 + 1 X42
  + 1 X64 + 1 X84 + 1 X98
  <= 1
 c12:
  + 1 X96 + 1 X81 + 1 X47 + 1 X40 + 1 X33 + 1 X29
  <= 1
 c13:
  + 1 X95 + 1 X13 + 1 X54
  <= 1
 c14:
  + 1 X97 + 1 X90 + 1 X79 + 1 X91 + 1 X74 + 1 X96 + 1 X64 + 1 X9
  + 1 X37 + 1 X51 + 1 X67 + 1 X31 + 1 X94
  <= 1
 c15:
  + 1 X9 + 1 X49 + 1 X43 + 1 X46 + 1 X30 + 1 X32 + 1 X64 + 1 X29
  + 1 X85 + 1 X60 + 1 X2 + 1 X45 + 1 X88 + 1 X19 + 1 X16 + 1 X33
  + 1 X13 + 1 X47 + 1 X7 + 1 X6
  <= 1
 c16:
  + 1 X79 + 1 X100 + 1 X85 + 1 X2 + 1 X76 + 1 X48 + 1 X80 + 1 X52
  + 1 X21 + 1 X61 + 1 X83 + 1 X74 + 1 X56 + 1 X17 + 1 X92
  <= 1
 c17:
  + 1 X84 + 1 X58 + 1 X49 + 1 X48 + 1 X3 + 1 X5 + 1 X42 + 1 X98
  + 1 X62 + 1 X14 + 1 X34 + 1 X47 + 1 X52 + 1 X96 + 1 X76 + 1 X57
  <= 1
 c18:
  + 1 X56 + 1 X38 + 1 X86 + 1 X61 + 1 X99 + 1 X87 + 1 X42 + 1 X80
  + 1 X15 + 1 X23
  <= 1
 c19:
  + 1 X30 + 1 X37 + 1 X45
  <= 1
 c20:
  + 1 X94 + 1 X27 + 1 X84 + 1 X86 + 1 X14 + 1 X11 + 1 X40 + 1 X18
  + 1 X100 + 1 X83 + 1 X76 + 1 X58 + 1 X16 + 1 X57 + 1 X62
  <= 1
 obj1:
  + 13 X1 + 29 X2 + 86 X3 + 81 X4 + 30 X5 + 95 X6 + 82 X7 + 29 X8
  + 60 X9 + 13 X10 + 87 X11 + 98 X12 + 35 X13 + 55 X14 + 72 X15 + 91 X16
  + 64 X17 + 70 X18 + 31 X19 + 49 X20 + 30 X21 + 45 X22 + 5 X23 + 60 X24
  + 73 X25 + 93 X26 + 14 X27 + 84 X28 + 4 X29 + 70 X30 + 5 X31 + 32 X32
  + 91 X33 + 36 X34 + 97 X35 + 10 X36 + 9 X37 + 89 X38 + 95 X39 + 25 X40
  + 29 X41 + 94 X42 + 82 X43 + 19 X44 + 67 X45 + 76 X46 + 99 X47 + 16 X48
  + 36 X49 + 69 X50 + 91 X51 + 77 X52 + 30 X53 + 2 X54 + 50 X55 + 47 X56
  + 41 X57 + 43 X58 + 55 X59 + 54 X60 + 85 X61 + 23 X62 + 65 X63 + 43 X64
  + 3 X65 + 55 X66 + 84 X67 + 13 X68 + 56 X69 + 41 X70 + 69 X71 + 7 X72
  + 97 X73 + 31 X74 + 73 X75 + 73 X76 + 92 X77 + 21 X78 + 91 X79 + 81 X80
  + 4 X81 + 61 X82 + 63 X83 + 88 X84 + 82 X85 + 91 X86 + 39 X87 + 4 X88
  + 52 X89 + 36 X90 + 70 X91 + 71 X92 + 36 X93 + 60 X94 + 29 X95 + 41 X96
  + 3 X97 + 51 X98 + 1 X99 + 41 X100
  >= 1
 obj2:
  + 39 X1 + 86 X2 + 63 X3 + 70 X4 + 74 X5 + 53 X6 + 68 X7 + 12 X8
  + 54 X9 + 87 X10 + 93 X11 + 49 X12 + 29 X13 + 87 X14 + 68 X15 + 84 X16
  + 12 X17 + 74 X18 + 97 X19 + 85 X20 + 83 X21 + 17 X22 + 74 X23 + 44 X24
  + 21 X25 + 19 X26 + 83 X27 + 26 X28 + 31 X29 + 89 X30 + 96 X31 + 57 X32
  + 84 X33 + 58 X34 + 46 X35 + 31 X36 + 69 X37 + 2 X38 + 38 X39 + 50 X40
  + 50 X41 + 64 X42 + 41 X43 + 24 X44 + 82 X45 + 36 X46 + 84 X47 + 3 X48
  + 60 X49 + 83 X50 + 92 X51 + 85 X52 + 57 X53 + 26 X54 + 15 X55 + 93 X56
  + 63 X57 + 15 X58 + 58 X59 + 42 X60 + 90 X61 + 70 X62 + 42 X63 + 61 X64
  + 79 X65 + 78 X66 + 74 X67 + 31 X68 + 28 X69 + 38 X70 + 68 X71 + 59 X72
  + 95 X73 + 87 X74 + 95 X75 + 68 X76 + 59 X77 + 44 X78 + 71 X79 + 28 X80
  + 15 X81 + 57 X82 + 73 X83 + 27 X84 + 35 X85 + 73 X86 + 51 X87 + 49 X88
  + 27 X89 + 16 X90 + 83 X91 + 93 X92 + 84 X93 + 17 X94 + 55 X95 + 25 X96
  + 80 X97 + 45 X98 + 21 X99 + 68 X100
  >= 2
 obj3:
  + 23 X1 + 47 X2 + 96 X3 + 5 X4 + 50 X5 + 55 X6 + 12 X7 + 83 X8
  + 37 X9 + 56 X10 + 79 X11 + 21 X12 + 39 X13 + 88 X14 + 92 X15 + 100 X16
  + 54 X17 + 75 X18 + 96 X19 + 20 X20 + 61 X21 + 88 X22 + 37 X23 + 92 X24
  + 54 X25 + 48 X26 + 39 X27 + 7 X28 + 37 X29 + 74 X30 + 93 X31 + 26 X32
  + 31 X33 + 59 X34 + 48 X35 + 11 X36 + 67 X37 + 53 X38 + 98 X39 + 21 X40
  + 15 X41 + 70 X42 + 93 X43 + 80 X44 + 47 X45 + 7 X46 + 23 X47 + 7 X48
  + 38 X49 + 97 X50 + 37 X51 + 39 X52 + 39 X53 + 43 X54 + 15 X55 + 13 X56
  + 31 X57 + 41 X58 + 92 X59 + 56 X60 + 32 X61 + 4 X62 + 50 X63 + 43 X64
  + 66 X65 + 89 X66 + 6 X67 + 46 X68 + 89 X69 + 99 X70 + 84 X71 + 28 X72
  + 74 X73 + 89 X74 + 61 X75 + 81 X76 + 45 X77 + 62 X78 + 92 X79 + 25 X80
  + 34 X81 + 21 X82 + 29 X83 + 98 X84 + 30 X85 + 56 X86 + 34 X87 + 48 X88
  + 62 X89 + 26 X90 + 71 X91 + 18 X92 + 99 X93 + 13 X94 + 15 X95 + 7 X96
  + 70 X97 + 85 X98 + 93 X99 + 82 X100
  >= 3
 obj4:
  + 77 X1 + 12 X2 + 85 X3 + 44 X4 + 16 X5 + 18 X6 + 66 X7 + 46 X8
  + 17 X9 + 75 X10 + 46 X11 + 7 X12 + 94 X13 + 72 X14 + 93 X15 + 52 X16
  + 59 X17 + 2 X18 + 94 X19 + 35 X20 + 99 X21 + 15 X22 + 21 X23 + 34 X24
  + 47 X25 + 65 X26 + 70 X27 + 64 X28 + 69 X29 + 17 X30 + 92 X31 + 17 X32
  + 13 X33 + 1 X34 + 13 X35 + 59 X36 + 18 X37 + 36 X38 + 93 X39 + 16 X40
  + 83 X41 + 84 X42 + 28 X43 + 6 X44 + 18 X45 + 33 X46 + 7 X47 + 76 X48
  + 49 X49 + 40 X50 + 2 X51 + 66 X52 + 88 X53 + 7 X54 + 93 X55 + 38 X56
  + 33 X57 + 94 X58 + 99 X59 + 5 X60 + 34 X61 + 55 X62 + 6 X63 + 98 X64
  + 68 X65 + 95 X66 + 57 X67 + 8 X68 + 73 X69 + 19 X70 + 37 X71 + 5 X72
  + 29 X73 + 72 X74 + 60 X75 + 64 X76 + 82 X77 + 15 X78 + 74 X79 + 94 X80
  + 96 X81 + 33 X82 + 46 X83 + 60 X84 + 99 X85 + 58 X86 + 61 X87 + 27 X88
  + 93 X89 + 58 X90 + 65 X91 + 53 X92 + 24 X93 + 11 X94 + 80 X95 + 90 X96
  + 50 X97 + 23 X98 + 63 X99 + 13 X100
  >= 4
Binary
 X1
 X2
 X3
 X4
 X5
 X6
 X7
 X8
 X9
 X10
 X11
 X12
 X13
 X14
 X15
 X16
 X17
 X18
 X19
 X20
 X21
 X22
 X23
 X24
 X25
 X26
 X27
 X28
 X29
 X30
 X31
 X32
 X33
 X34
 X35
 X36
 X37
 X38
 X39
 X40
 X41
 X42
 X43
 X44
 X45
 X46
 X47
 X48
 X49
 X50
 X51
 X52
 X53
 X54
 X55
 X56
 X57
 X58
 X59
 X60
 X61
 X62
 X63
 X64
 X65
 X66
 X67
 X68
 X69
 X70
 X71
 X72
 X73
 X74
 X75
 X76
 X77
 X78
 X79
 X80
 X81
 X82
 X83
 X84
 X85
 X86
 X87
 X88
 X89
 X90
 X91
 X92
 X93
 X94
 X95
 X96
 X97
 X98
 X99
 X100
End
